param Gas = 51000;
param M = 1000000;
param kmGalon :=
	1	3
	2	4.5
;
param Cap :=
	1	48
	2	35
;
param Dis :=
	1	675
	2	720
	3	810
	4	900
;
param pF :
		1	2	3	4	:=
	1	0.9	0.8	0.85	0.75
	2	0.92	0.84	0.88	0.8
;
	